(set-info :smt-lib-version 2.6)
(set-logic ALL)
(declare-const BAV1 Bool)
(declare-const GEN2 Int)
(declare-const GEN1 Int)
(declare-fun x () (_ BitVec 8))
(declare-fun y () (_ BitVec 8))
(assert (not (= (bvudiv x (_ bv0 8)) (_ bv255 8))))
(assert (= BAV1 (= (bvudiv x (_ bv0 8)) (_ bv255 8))))
(check-sat)
(get-model)